/* Objective function */
min: y1 + y2 + y3 + y4 + y5;

/* Variable bounds */
u11 + u12 + u13 = 2;
u21 + u22 = 2;
u31 + u32 = 2;
y1 = 17 0.5 u12 + 17 0.5 u13 + 12 0.5 u31;
y2 = 17 0.5 u11 + 12 0.5 u32;
y3 = 17 0.5 u13 + 17 0.5 u22 + 12 0.5 u32;
y4 = 17 0.5 u11 + 17 0.5 u13 + 17 0.5 u22;
y5 = 17 0.5 u12 + 17 0.5 u22;
c1: 17 0.5 u12 + 17 0.5 u13 + 12 0.5 u31 <= 20;
c2: 17 0.5 u11 + 12 0.5 u32 <= 20;
c3: 17 0.5 u13 + 17 0.5 u22 + 12 0.5 u32 <= 20;
c4: 17 0.5 u11 + 17 0.5 u13 + 17 0.5 u22 <= 20;
c5: 17 0.5 u12 + 17 0.5 u22   <= 20;
bin u11, u12, u13, u21, u22, u31, u32;